
Gurobi 13.0.2 (win64) logging started Thu Jul 23 12:32:31 2026

Set parameter LogFile to value "E:\codes\ExactEBRP\results\gf_gurobi_performance_recovery_round29\development\moderate_seed4301__c2_cold__60s\external\native_logs\L0.0.1.1.1.0.1_terminal_mip.gurobi.log"
Gurobi Optimizer version 13.0.2 build v13.0.2rc1 (win64 - Windows 10.0 (19045.2))

CPU model: 12th Gen Intel(R) Core(TM) i7-12700KF, instruction set [SSE2|AVX|AVX2]
Thread count: 12 physical cores, 20 logical processors, using up to 1 threads

Non-default parameters:
TimeLimit  1.9575079100000004e+01
MIPGap  0
MIPGapAbs  0
LogToConsole  0
Threads  1

Optimize a model with 11911 rows, 3376 columns and 67353 nonzeros (Min)
Model fingerprint: 0x14d39602
Model has 21 linear objective coefficients
Variable types: 1685 continuous, 1691 integer (1491 binary)
Coefficient statistics:
  Matrix range     [2e-03, 2e+04]
  Objective range  [8e-03, 1e+00]
  Bounds range     [2e-03, 5e+01]
  RHS range        [2e-03, 5e+04]

Presolve removed 5394 rows and 699 columns
Presolve time: 0.23s

Explored 0 nodes (0 simplex iterations) in 0.23 seconds (0.40 work units)
Thread count was 1 (of 20 available processors)

Solution count 0

Model is infeasible
Best objective -, best bound -, gap -

User-callback calls 684, time in user-callback 0.00 sec
